(set-logic HORN)
(set-info :source |
    Benchmark: C_VC
    Output by Princess (http://www.philipp.ruemmer.org/princess.shtml)
|)
(set-info :status sat)
(declare-heap Heap Addr HeapObject
 defObj
 ((HeapObject 0)) (
  (
   (O_Int (getInt Int))
   (O_UInt (getUInt Int))
   (O_Addr (getAddr Addr))
   (defObj)
  )
))
(declare-fun inv_main14 (Heap AddrRange AddrRange Int Int Int Int Int) Bool)
(declare-fun inv_main18 (Heap AddrRange AddrRange Int Int Int Int Int) Bool)
(declare-fun inv_main23 (Heap AddrRange AddrRange Int Int Int Int Int) Bool)
(declare-fun inv_main27 (Heap AddrRange AddrRange Int Int Int Int Int) Bool)
(declare-fun inv_main34 (Heap AddrRange AddrRange Int Int Int Int Int) Bool)
(declare-fun inv_main36 (Heap AddrRange AddrRange Int Int Int Int Int) Bool)
(declare-fun inv_main39 (Heap AddrRange AddrRange Int Int Int Int Int Int) Bool)
(declare-fun inv_main4 (Heap AddrRange AddrRange Int Int Int Int Int) Bool)
(declare-fun inv_main42 (Heap AddrRange AddrRange Int Int Int Int Int) Bool)
(declare-fun inv_main5 (Heap AddrRange AddrRange Int Int Int Int Int) Bool)
(declare-fun inv_main9 (Heap AddrRange AddrRange Int Int Int Int Int) Bool)
(assert (forall ((var0 Int) (var1 Int) (var2 Int) (var3 Int) (var4 AddrRange) (var5 AddrRange) (var6 Int) (var7 Int) (var8 Heap) (var9 Heap)) (or (not (and (= var9 emptyHeap) (and (and (= var8 (newBatchHeap (batchAlloc (newBatchHeap (batchAlloc emptyHeap (O_Int var7) 5)) (O_Int var6) 5))) (= var5 (newAddrRange (batchAlloc emptyHeap (O_Int var7) 5)))) (= var4 (newAddrRange (batchAlloc (newBatchHeap (batchAlloc emptyHeap (O_Int var7) 5)) (O_Int var6) 5)))))) (inv_main4 var8 var5 var4 var3 var2 var1 var0 0))))
(assert (forall ((var0 Int) (var1 Int) (var2 Int) (var3 AddrRange) (var4 AddrRange) (var5 Heap) (var6 Int) (var7 Int) (var8 Int) (var9 Int) (var10 Int) (var11 Int) (var12 Int) (var13 Int) (var14 AddrRange) (var15 AddrRange) (var16 Heap)) (or (not (and (inv_main27 var16 var15 var14 var13 var12 var11 var10 var9) (and (<= 0 (+ var8 (* (- 1) var7))) (and (and (= var6 0) (is-O_Int (read var16 (nthAddrRange var14 var10)))) (and (and (and (and (and (and (and (and (= var5 var16) (= var4 var15)) (= var3 var14)) (= var2 var13)) (= var1 var12)) (= var7 var11)) (= var8 var10)) (= var0 var9)) (= var6 (getInt (read var16 (nthAddrRange var14 var10))))))))) (inv_main34 var5 var4 var3 0 0 var7 var8 var0))))
(assert (forall ((var0 Int) (var1 Int) (var2 Int) (var3 Int) (var4 Int) (var5 Int) (var6 AddrRange) (var7 AddrRange) (var8 Heap)) (or (not (and (inv_main39 var8 var7 var6 var5 var4 var3 var2 var1 var0) (and (is-O_Int (read var8 (nthAddrRange var6 var4))) (= var0 (getInt (read var8 (nthAddrRange var6 var4))))))) (inv_main34 var8 var7 var6 (+ var5 1) (+ var4 1) var3 var2 var1))))
(assert (forall ((var0 Int) (var1 Int) (var2 Int) (var3 Int) (var4 Int) (var5 Int) (var6 AddrRange) (var7 AddrRange) (var8 Heap)) (or (not (and (inv_main39 var8 var7 var6 var5 var4 var3 var2 var1 var0) (and (is-O_Int (read var8 (nthAddrRange var6 var4))) (not (= var0 (getInt (read var8 (nthAddrRange var6 var4)))))))) (inv_main34 var8 var7 var6 (+ (+ var5 (* (- 1) var4)) 1) 0 var3 var2 var1))))
(assert (forall ((var0 Int) (var1 Int) (var2 Int) (var3 Int) (var4 Int) (var5 AddrRange) (var6 AddrRange) (var7 Heap)) (or (not (inv_main4 var7 var6 var5 var4 var3 var2 var1 var0)) (inv_main9 var7 var6 var5 0 var3 var2 var1 var0))))
(assert (forall ((var0 Int) (var1 Int) (var2 Int) (var3 Int) (var4 AddrRange) (var5 AddrRange) (var6 Int) (var7 Heap) (var8 Int) (var9 Int) (var10 Int) (var11 Int) (var12 Int) (var13 Int) (var14 AddrRange) (var15 AddrRange) (var16 Heap)) (or (not (and (inv_main9 var16 var15 var14 var13 var12 var11 var10 var9) (and (<= 0 (+ (+ 5 (* (- 1) (+ var8 1))) (- 1))) (and (and (is-O_Int (read var16 (nthAddrRange var15 var13))) (is-O_Int (read var16 (nthAddrRange var15 var13)))) (and (and (and (and (and (and (and (= var7 (write var16 (nthAddrRange var15 var13) (O_Int var6))) (= var5 var15)) (= var4 var14)) (= var8 var13)) (= var3 var12)) (= var2 var11)) (= var1 var10)) (= var0 var9)))))) (inv_main9 var7 var5 var4 (+ var8 1) var3 var2 var1 var0))))
(assert (forall ((var0 Int) (var1 Int) (var2 Int) (var3 Int) (var4 Int) (var5 AddrRange) (var6 AddrRange) (var7 Heap) (var8 Int) (var9 Int) (var10 Int) (var11 Int) (var12 Int) (var13 Int) (var14 AddrRange) (var15 AddrRange) (var16 Heap)) (or (not (and (inv_main14 var16 var15 var14 var13 var12 var11 var10 var9) (and (and (= var8 0) (is-O_Int (read var16 (nthAddrRange var14 4)))) (and (and (and (and (and (and (and (and (= var7 var16) (= var6 var15)) (= var5 var14)) (= var4 var13)) (= var3 var12)) (= var2 var11)) (= var1 var10)) (= var0 var9)) (= var8 (getInt (read var16 (nthAddrRange var14 4)))))))) (inv_main23 var7 var6 var5 var4 var3 0 var1 var0))))
(assert (forall ((var0 Int) (var1 Int) (var2 Int) (var3 Int) (var4 Int) (var5 AddrRange) (var6 AddrRange) (var7 Heap) (var8 Int) (var9 Int) (var10 Int) (var11 Int) (var12 Int) (var13 Int) (var14 AddrRange) (var15 AddrRange) (var16 Heap)) (or (not (and (inv_main23 var16 var15 var14 var13 var12 var11 var10 var9) (and (and (not (= var8 0)) (is-O_Int (read var16 (nthAddrRange var15 var11)))) (and (and (and (and (and (and (and (and (= var7 var16) (= var6 var15)) (= var5 var14)) (= var4 var13)) (= var3 var12)) (= var2 var11)) (= var1 var10)) (= var0 var9)) (= var8 (getInt (read var16 (nthAddrRange var15 var11)))))))) (inv_main23 var7 var6 var5 var4 var3 (+ var2 1) var1 var0))))
(assert (forall ((var0 Int) (var1 Int) (var2 Int) (var3 Int) (var4 Int) (var5 AddrRange) (var6 AddrRange) (var7 Heap) (var8 Int) (var9 Int) (var10 Int) (var11 Int) (var12 Int) (var13 Int) (var14 AddrRange) (var15 AddrRange) (var16 Heap)) (or (not (and (inv_main23 var16 var15 var14 var13 var12 var11 var10 var9) (and (and (= var8 0) (is-O_Int (read var16 (nthAddrRange var15 var11)))) (and (and (and (and (and (and (and (and (= var7 var16) (= var6 var15)) (= var5 var14)) (= var4 var13)) (= var3 var12)) (= var2 var11)) (= var1 var10)) (= var0 var9)) (= var8 (getInt (read var16 (nthAddrRange var15 var11)))))))) (inv_main27 var7 var6 var5 var4 var3 var2 0 var0))))
(assert (forall ((var0 Int) (var1 Int) (var2 Int) (var3 Int) (var4 Int) (var5 AddrRange) (var6 AddrRange) (var7 Heap) (var8 Int) (var9 Int) (var10 Int) (var11 Int) (var12 Int) (var13 Int) (var14 AddrRange) (var15 AddrRange) (var16 Heap)) (or (not (and (inv_main27 var16 var15 var14 var13 var12 var11 var10 var9) (and (and (not (= var8 0)) (is-O_Int (read var16 (nthAddrRange var14 var10)))) (and (and (and (and (and (and (and (and (= var7 var16) (= var6 var15)) (= var5 var14)) (= var4 var13)) (= var3 var12)) (= var2 var11)) (= var1 var10)) (= var0 var9)) (= var8 (getInt (read var16 (nthAddrRange var14 var10)))))))) (inv_main27 var7 var6 var5 var4 var3 var2 (+ var1 1) var0))))
(assert (forall ((var0 Int) (var1 Int) (var2 Int) (var3 Int) (var4 Int) (var5 AddrRange) (var6 AddrRange) (var7 Heap)) (or (not (and (inv_main36 var7 var6 var5 var4 var3 var2 var1 var0) (is-O_Int (read var7 (nthAddrRange var6 var4))))) (inv_main39 var7 var6 var5 var4 var3 var2 var1 var0 (getInt (read var7 (nthAddrRange var6 var4)))))))
(assert (forall ((var0 Int) (var1 Int) (var2 Int) (var3 Int) (var4 Int) (var5 AddrRange) (var6 AddrRange) (var7 Heap) (var8 Int) (var9 Int) (var10 Int) (var11 Int) (var12 Int) (var13 Int) (var14 AddrRange) (var15 AddrRange) (var16 Heap)) (or (not (and (inv_main5 var16 var15 var14 var13 var12 var11 var10 var9) (and (and (= var8 0) (is-O_Int (read var16 (nthAddrRange var15 4)))) (and (and (and (and (and (and (and (and (= var7 var16) (= var6 var15)) (= var5 var14)) (= var4 var13)) (= var3 var12)) (= var2 var11)) (= var1 var10)) (= var0 var9)) (= var8 (getInt (read var16 (nthAddrRange var15 4)))))))) (inv_main18 var7 var6 var5 0 var3 var2 var1 var0))))
(assert (forall ((var0 Int) (var1 Int) (var2 Int) (var3 Int) (var4 AddrRange) (var5 AddrRange) (var6 Int) (var7 Heap) (var8 Int) (var9 Int) (var10 Int) (var11 Int) (var12 Int) (var13 Int) (var14 AddrRange) (var15 AddrRange) (var16 Heap)) (or (not (and (inv_main18 var16 var15 var14 var13 var12 var11 var10 var9) (and (<= 0 (+ (+ 5 (* (- 1) (+ var8 1))) (- 1))) (and (and (is-O_Int (read var16 (nthAddrRange var14 var13))) (is-O_Int (read var16 (nthAddrRange var14 var13)))) (and (and (and (and (and (and (and (= var7 (write var16 (nthAddrRange var14 var13) (O_Int var6))) (= var5 var15)) (= var4 var14)) (= var8 var13)) (= var3 var12)) (= var2 var11)) (= var1 var10)) (= var0 var9)))))) (inv_main18 var7 var5 var4 (+ var8 1) var3 var2 var1 var0))))
(assert (forall ((var0 Int) (var1 Int) (var2 Int) (var3 Int) (var4 Int) (var5 AddrRange) (var6 AddrRange) (var7 Heap)) (or (not (and (inv_main34 var7 var6 var5 var4 var3 var2 var1 var0) (and (<= 0 (+ (+ var2 (* (- 1) var4)) (- 1))) (<= 0 (+ (+ var1 (* (- 1) var3)) (- 1)))))) (inv_main36 var7 var6 var5 var4 var3 var2 var1 var0))))
(assert (forall ((var0 Int) (var1 Int) (var2 Int) (var3 Int) (var4 Int) (var5 AddrRange) (var6 AddrRange) (var7 Heap)) (or (not (and (inv_main34 var7 var6 var5 var4 var3 var2 var1 var0) (or (not (<= 0 (+ (+ var2 (* (- 1) var4)) (- 1)))) (not (<= 0 (+ (+ var1 (* (- 1) var3)) (- 1))))))) (and (or (not (<= 0 (+ (+ var3 (* (- 1) (+ var1 (- 1)))) (- 1)))) (inv_main42 var7 var6 var5 var4 var3 var2 var1 1)) (or (not (not (<= 0 (+ (+ var3 (* (- 1) (+ var1 (- 1)))) (- 1))))) (inv_main42 var7 var6 var5 var4 var3 var2 var1 0))))))
(assert (forall ((var0 Int) (var1 Int) (var2 Int) (var3 Int) (var4 AddrRange) (var5 AddrRange) (var6 Int) (var7 Heap) (var8 Int) (var9 Int) (var10 Int) (var11 Int) (var12 Int) (var13 Int) (var14 AddrRange) (var15 AddrRange) (var16 Heap)) (or (not (and (inv_main9 var16 var15 var14 var13 var12 var11 var10 var9) (and (not (<= 0 (+ (+ 5 (* (- 1) (+ var8 1))) (- 1)))) (and (and (is-O_Int (read var16 (nthAddrRange var15 var13))) (is-O_Int (read var16 (nthAddrRange var15 var13)))) (and (and (and (and (and (and (and (= var7 (write var16 (nthAddrRange var15 var13) (O_Int var6))) (= var5 var15)) (= var4 var14)) (= var8 var13)) (= var3 var12)) (= var2 var11)) (= var1 var10)) (= var0 var9)))))) (inv_main5 var7 var5 var4 (+ var8 1) var3 var2 var1 var0))))
(assert (forall ((var0 Int) (var1 Int) (var2 Int) (var3 Int) (var4 AddrRange) (var5 AddrRange) (var6 Int) (var7 Heap) (var8 Int) (var9 Int) (var10 Int) (var11 Int) (var12 Int) (var13 Int) (var14 AddrRange) (var15 AddrRange) (var16 Heap)) (or (not (and (inv_main18 var16 var15 var14 var13 var12 var11 var10 var9) (and (not (<= 0 (+ (+ 5 (* (- 1) (+ var8 1))) (- 1)))) (and (and (is-O_Int (read var16 (nthAddrRange var14 var13))) (is-O_Int (read var16 (nthAddrRange var14 var13)))) (and (and (and (and (and (and (and (= var7 (write var16 (nthAddrRange var14 var13) (O_Int var6))) (= var5 var15)) (= var4 var14)) (= var8 var13)) (= var3 var12)) (= var2 var11)) (= var1 var10)) (= var0 var9)))))) (inv_main14 var7 var5 var4 (+ var8 1) var3 var2 var1 var0))))
(assert (forall ((var0 Int) (var1 Int) (var2 Int) (var3 Int) (var4 Int) (var5 AddrRange) (var6 AddrRange) (var7 Heap)) (not (and (inv_main9 var7 var6 var5 var4 var3 var2 var1 var0) (not (is-O_Int (read var7 (nthAddrRange var6 var4))))))))
(assert (forall ((var0 Int) (var1 Int) (var2 Int) (var3 Int) (var4 Int) (var5 AddrRange) (var6 AddrRange) (var7 Heap)) (not (and (inv_main9 var7 var6 var5 var4 var3 var2 var1 var0) (and (is-O_Int (read var7 (nthAddrRange var6 var4))) (not (within var6 (nthAddrRange var6 var4))))))))
(assert (forall ((var0 Int) (var1 Int) (var2 Int) (var3 Int) (var4 Int) (var5 AddrRange) (var6 AddrRange) (var7 Heap)) (not (and (inv_main9 var7 var6 var5 var4 var3 var2 var1 var0) (and (is-O_Int (read var7 (nthAddrRange var6 var4))) (not (is-O_Int (read var7 (nthAddrRange var6 var4)))))))))
(assert (forall ((var0 Int) (var1 Int) (var2 Int) (var3 Int) (var4 Int) (var5 AddrRange) (var6 AddrRange) (var7 Heap)) (not (and (inv_main5 var7 var6 var5 var4 var3 var2 var1 var0) (not (is-O_Int (read var7 (nthAddrRange var6 4))))))))
(assert (forall ((var0 Int) (var1 Int) (var2 Int) (var3 Int) (var4 Int) (var5 AddrRange) (var6 AddrRange) (var7 Heap)) (not (and (inv_main5 var7 var6 var5 var4 var3 var2 var1 var0) (and (is-O_Int (read var7 (nthAddrRange var6 4))) (not (within var6 (nthAddrRange var6 4))))))))
(assert (forall ((var0 Int) (var1 Int) (var2 Int) (var3 Int) (var4 Int) (var5 AddrRange) (var6 AddrRange) (var7 Heap)) (not (and (inv_main18 var7 var6 var5 var4 var3 var2 var1 var0) (not (is-O_Int (read var7 (nthAddrRange var5 var4))))))))
(assert (forall ((var0 Int) (var1 Int) (var2 Int) (var3 Int) (var4 Int) (var5 AddrRange) (var6 AddrRange) (var7 Heap)) (not (and (inv_main18 var7 var6 var5 var4 var3 var2 var1 var0) (and (is-O_Int (read var7 (nthAddrRange var5 var4))) (not (within var5 (nthAddrRange var5 var4))))))))
(assert (forall ((var0 Int) (var1 Int) (var2 Int) (var3 Int) (var4 Int) (var5 AddrRange) (var6 AddrRange) (var7 Heap)) (not (and (inv_main18 var7 var6 var5 var4 var3 var2 var1 var0) (and (is-O_Int (read var7 (nthAddrRange var5 var4))) (not (is-O_Int (read var7 (nthAddrRange var5 var4)))))))))
(assert (forall ((var0 Int) (var1 Int) (var2 Int) (var3 Int) (var4 Int) (var5 AddrRange) (var6 AddrRange) (var7 Heap)) (not (and (inv_main14 var7 var6 var5 var4 var3 var2 var1 var0) (not (is-O_Int (read var7 (nthAddrRange var5 4))))))))
(assert (forall ((var0 Int) (var1 Int) (var2 Int) (var3 Int) (var4 Int) (var5 AddrRange) (var6 AddrRange) (var7 Heap)) (not (and (inv_main14 var7 var6 var5 var4 var3 var2 var1 var0) (and (is-O_Int (read var7 (nthAddrRange var5 4))) (not (within var5 (nthAddrRange var5 4))))))))
(assert (forall ((var0 Int) (var1 Int) (var2 Int) (var3 Int) (var4 Int) (var5 AddrRange) (var6 AddrRange) (var7 Heap)) (not (and (inv_main23 var7 var6 var5 var4 var3 var2 var1 var0) (not (is-O_Int (read var7 (nthAddrRange var6 var2))))))))
(assert (forall ((var0 Int) (var1 Int) (var2 Int) (var3 Int) (var4 Int) (var5 AddrRange) (var6 AddrRange) (var7 Heap)) (not (and (inv_main23 var7 var6 var5 var4 var3 var2 var1 var0) (and (is-O_Int (read var7 (nthAddrRange var6 var2))) (not (within var6 (nthAddrRange var6 var2))))))))
(assert (forall ((var0 Int) (var1 Int) (var2 Int) (var3 Int) (var4 Int) (var5 AddrRange) (var6 AddrRange) (var7 Heap)) (not (and (inv_main27 var7 var6 var5 var4 var3 var2 var1 var0) (not (is-O_Int (read var7 (nthAddrRange var5 var1))))))))
(assert (forall ((var0 Int) (var1 Int) (var2 Int) (var3 Int) (var4 Int) (var5 AddrRange) (var6 AddrRange) (var7 Heap)) (not (and (inv_main27 var7 var6 var5 var4 var3 var2 var1 var0) (and (is-O_Int (read var7 (nthAddrRange var5 var1))) (not (within var5 (nthAddrRange var5 var1))))))))
(assert (forall ((var0 Int) (var1 Int) (var2 Int) (var3 Int) (var4 Int) (var5 AddrRange) (var6 AddrRange) (var7 Heap)) (not (and (inv_main36 var7 var6 var5 var4 var3 var2 var1 var0) (not (is-O_Int (read var7 (nthAddrRange var6 var4))))))))
(assert (forall ((var0 Int) (var1 Int) (var2 Int) (var3 Int) (var4 Int) (var5 AddrRange) (var6 AddrRange) (var7 Heap)) (not (and (inv_main36 var7 var6 var5 var4 var3 var2 var1 var0) (and (is-O_Int (read var7 (nthAddrRange var6 var4))) (not (within var6 (nthAddrRange var6 var4))))))))
(assert (forall ((var0 Int) (var1 Int) (var2 Int) (var3 Int) (var4 Int) (var5 Int) (var6 AddrRange) (var7 AddrRange) (var8 Heap)) (not (and (inv_main39 var8 var7 var6 var5 var4 var3 var2 var1 var0) (not (is-O_Int (read var8 (nthAddrRange var6 var4))))))))
(assert (forall ((var0 Int) (var1 Int) (var2 Int) (var3 Int) (var4 Int) (var5 Int) (var6 AddrRange) (var7 AddrRange) (var8 Heap)) (not (and (inv_main39 var8 var7 var6 var5 var4 var3 var2 var1 var0) (and (is-O_Int (read var8 (nthAddrRange var6 var4))) (not (within var6 (nthAddrRange var6 var4))))))))
(assert (forall ((var0 Int) (var1 Int) (var2 Int) (var3 Int) (var4 Int) (var5 AddrRange) (var6 AddrRange) (var7 Heap)) (not (and (inv_main42 var7 var6 var5 var4 var3 var2 var1 var0) (and (not (= var0 0)) (not (= var0 1)))))))
(check-sat)
